0	151	159	48	25	145	100	116	39	179	94	
44	0	171	152	178	27	132	97	132	167	156	
198	20	0	171	90	65	190	26	143	65	48	
25	80	170	0	34	141	83	95	59	156	96	
84	99	153	66	0	51	128	185	93	169	48	
181	153	22	196	154	0	66	71	61	139	87	
176	120	130	138	158	151	0	191	56	26	23	
143	44	145	55	135	108	73	0	67	110	145	
146	148	94	200	64	130	123	24	0	44	46	
20	196	93	58	107	140	171	148	118	0	88	
112	140	49	147	161	159	161	22	34	57	0	
